solution status: optimal solution found
objective value:                                   35
x28                                                 1 	(obj:1)
x30                                                 1 	(obj:1)
x36                                                 1 	(obj:1)
x39                                                 1 	(obj:1)
x41                                                 1 	(obj:1)
x45                                                 1 	(obj:1)
x47                                                 1 	(obj:1)
x48                                                 1 	(obj:1)
x49                                                 1 	(obj:1)
x52                                                 1 	(obj:1)
x53                                                 1 	(obj:1)
x54                                                 1 	(obj:1)
x55                                                 1 	(obj:1)
x56                                                 1 	(obj:1)
x58                                                 1 	(obj:1)
x59                                                 1 	(obj:1)
x60                                                 1 	(obj:1)
x63                                                 1 	(obj:1)
x66                                                 1 	(obj:1)
x67                                                 1 	(obj:1)
x68                                                 1 	(obj:1)
x69                                                 1 	(obj:1)
x70                                                 1 	(obj:1)
x72                                                 1 	(obj:1)
x73                                                 1 	(obj:1)
x75                                                 1 	(obj:1)
x76                                                 1 	(obj:1)
x78                                                 1 	(obj:1)
x83                                                 1 	(obj:1)
x84                                                 1 	(obj:1)
x85                                                 1 	(obj:1)
x87                                                 1 	(obj:1)
x88                                                 1 	(obj:1)
x89                                                 1 	(obj:1)
x95                                                 1 	(obj:1)
one.thingy.devices[2].thingy.v1_y                    5 	(obj:0)
one.thingy.devices[0].thingy.v3_y                    3 	(obj:0)
one.thingy.devices[0].thingy.v3_z                    1 	(obj:0)
one.thingy.devices[3].thingy.v2_y                    3 	(obj:0)
one.thingy.devices[3].thingy.v2_z                   -1 	(obj:0)
one.thingy.devices[3].thingy.v3_y                    3 	(obj:0)
one.thingy.devices[3].thingy.v3_z                   -2 	(obj:0)
one.thingy.devices[2].thingy.v2_y                    3 	(obj:0)
one.thingy.devices[1].thingy.v1_y                    3 	(obj:0)
one.thingy.devices[1].thingy.v1_z                    2 	(obj:0)
one.thingy.devices[3].thingy.v1_y                    4 	(obj:0)
one.thingy.devices[3].thingy.v1_z                   -2 	(obj:0)
one.thingy.devices[1].thingy.v3_y                    4 	(obj:0)
one.thingy.devices[1].thingy.v3_z                    2 	(obj:0)
one.thingy.devices[2].thingy.v3_y                    4 	(obj:0)
one.thingy.devices[0].thingy.v1_y                    2 	(obj:0)
one.thingy.devices[0].thingy.v1_z                    1 	(obj:0)
one.thingy.devices[1].thingy.v2_y                    3 	(obj:0)
one.thingy.devices[1].thingy.v2_z                    3 	(obj:0)
one.thingy.devices[0].thingy.v2_y                    2 	(obj:0)
one.thingy.devices[0].thingy.v2_z                    2 	(obj:0)
